(set-logic QF_BV)
(define-fun implies ((p Bool) (q Bool)) Bool (or (not p) q))

(declare-const BankingSoftware Bool)
(declare-const CoreBanking Bool)
(declare-const OpenAccount Bool)
(declare-const AccountType Bool)
(declare-const Saving Bool)
(declare-const Current Bool)
(declare-const ATMLogin Bool)
(declare-const UserType Bool)
(declare-const Customer Bool)
(declare-const BankEmployeeLogin Bool)
(declare-const UserType_1 Bool)
(declare-const Employee Bool)
(declare-const Cleark Bool)
(declare-const Manager Bool)
(declare-const AssitManager Bool)
(declare-const Accountent Bool)
(declare-const BankingMode Bool)
(declare-const ATM Bool)
(declare-const Bank Bool)
(declare-const Online Bool)
(declare-const OnlineCustomerLogin Bool)
(declare-const ScanSignatureToAccount Bool)
(declare-const ScanSignatureToAccount_1 Bool)
(declare-const CreditInterestToAccount Bool)
(declare-const LoadCashInATM Bool)
(declare-const DebitAnnualChargesOnDebitCard Bool)
(declare-const ActivateAccount Bool)
(declare-const ReactivateAccount Bool)
(declare-const CloseAccount Bool)
(declare-const FreezeAccount Bool)
(declare-const Manual Bool)
(declare-const Automatic Bool)
(declare-const AddBeneficiary Bool)
(declare-const InterBank Bool)
(declare-const IntraBank Bool)
(declare-const ChangeATMPin Bool)
(declare-const ChangeMaxLimitForOnlineTransfer Bool)
(declare-const ChangePassword Bool)
(declare-const CheckingBalance Bool)
(declare-const CheckingMoneyExchangeRate Bool)
(declare-const CreateDemandDraft Bool)
(declare-const CreateDemandDraftOnline Bool)
(declare-const CreditCardPayment Bool)
(declare-const CurrencyExchange Bool)
(declare-const DepositMoney Bool)
(declare-const FastWithdrawal Bool)
(declare-const InterBankTransfer Bool)
(declare-const InternationalTransfer Bool)
(declare-const IntraBankTransfer Bool)
(declare-const LanguageSelection Bool)
(declare-const MobileTopUp Bool)
(declare-const MoneyExchange Bool)
(declare-const PayBills Bool)
(declare-const PrintingBalanceAfterWithdraw Bool)
(declare-const PrintingBankStatement Bool)
(declare-const RemoveBeneficiary Bool)
(declare-const UpdateContactDetails Bool)
(declare-const UserInterface Bool)
(declare-const WithdrawMoney Bool)
(declare-const ChequeClearance Bool)
(declare-const RegisterMobileNoForBanking Bool)
(declare-const AddAccountHolder Bool)
(declare-const DeleteAccountHolder Bool)
(declare-const IssueChequeBook Bool)
(declare-const ChequeBookType Bool)
(declare-const Regular Bool)
(declare-const Multicity Bool)
(declare-const Size Bool)
(declare-const a15 Bool)
(declare-const a30 Bool)
(declare-const a50 Bool)
(declare-const a100 Bool)
(declare-const CreateStandingInstruction Bool)
(declare-const DeleteStandingInstruction Bool)
(declare-const CreateECSTransaction Bool)
(declare-const DeleteECSTransaction Bool)
(declare-const CreatePayOrder Bool)
(declare-const CreditThroughRTGS Bool)
(declare-const CreditThroughNEFT Bool)
(declare-const ReconcilingCardsTransactions Bool)
(declare-const CardType Bool)
(declare-const MasterCard Bool)
(declare-const VisaCard Bool)
(declare-const MastroCard Bool)
(declare-const ReconcilingATMTransactions Bool)
(declare-const MapDebitCardToAccount Bool)
(declare-const MapChequeBookToAccount Bool)
(declare-const AutoATMPinForDebitCard Bool)
(declare-const CloseFixedDeposit Bool)
(declare-const PreclosureFixedDeposit Bool)
(declare-const CancelDemandDraft Bool)
(declare-const CancelPayOrder Bool)
(declare-const Loan Bool)
(declare-const ApplyForLoanOnline Bool)
(declare-const EMICalculator Bool)
(declare-const LoanEligibilityChecker Bool)
(declare-const UploadLoanDocuments Bool)
(declare-const VerifyLoanDocuments Bool)
(declare-const LoanType Bool)
(declare-const Personal Bool)
(declare-const GoldLoan Bool)
(declare-const HomeLoan Bool)
(declare-const VehicleLoan Bool)
(declare-const LoanAgainstFD Bool)
(declare-const LoanAgainstProperty Bool)
(declare-const SanctionLoan Bool)
(declare-const DisburseLoanAmount Bool)
(declare-const LoanRepayment Bool)
(declare-const RepaymentMode Bool)
(declare-const Cheque Bool)
(declare-const ECS Bool)
(declare-const Cash Bool)
(declare-const LoanRepaymentEMI Bool)
(declare-const LoanRepaymentForecloser Bool)
(declare-const AddCoBorrower Bool)
(declare-const VerifyLoanEligibility Bool)
(declare-const InitiateDefaulterProcess Bool)
(declare-const SendNotice Bool)
(declare-const InsureLoanWithThirdParty Bool)
(declare-const AssetVerification Bool)
(declare-const CreditCards Bool)
(declare-const CardType_1 Bool)
(declare-const PlatinumCard Bool)
(declare-const TitaniumCard Bool)
(declare-const DinersClubCard Bool)
(declare-const JetPrivilegeCard Bool)
(declare-const InfiniaCard Bool)
(declare-const RegaliaCard Bool)
(declare-const SuperiaCard Bool)
(declare-const TitaniumEdgeCard Bool)
(declare-const SolitaireCard Bool)
(declare-const PaymentMode Bool)
(declare-const Visa Bool)
(declare-const Mastro Bool)
(declare-const Master Bool)
(declare-const AmericanExpress Bool)
(declare-const ApplyForCrediCardOnline Bool)
(declare-const CheckCreditCardStatus Bool)
(declare-const EligibilityChecker Bool)
(declare-const UploadDocuments Bool)
(declare-const VerifyDocuments Bool)
(declare-const ViewAccountSummary Bool)
(declare-const ApplyInterestOnOutstandingAmount Bool)
(declare-const ApplyAnnualCharges Bool)
(declare-const MarkDefaulter Bool)
(declare-const UnmarkDefaulter Bool)
(declare-const InitiateSettlementProcess Bool)
(declare-const CreditRewardPoints Bool)
(declare-const RedemRewardPoints Bool)
(declare-const ConvertTransactionToEMI Bool)
(declare-const PayCreditCardBill Bool)
(declare-const PaymentChannel Bool)
(declare-const Cheque_1 Bool)
(declare-const Cash_1 Bool)
(declare-const Online_1 Bool)
(declare-const NetBanking Bool)
(declare-const DebitCard Bool)
(declare-const ATM_1 Bool)
(declare-const PayUtilityBills Bool)
(declare-const AddPayee Bool)
(declare-const CreateStandingInstructionOnCreditCard Bool)
(declare-const ViewUnbilledTransaction Bool)
(declare-const eStatement Bool)
(declare-const SendSMSAlerts Bool)
(declare-const SendEmailAlerts Bool)
(declare-const GenerateOTP Bool)
(declare-const RegisterForEstatement Bool)
(declare-const ApplyLateFees Bool)
(declare-const ApplyBalanceTransfer Bool)
(declare-const ApplyProcessingFees Bool)
(declare-const CreditBTAmountToOtherCard Bool)
(declare-const CashWithdrawalFromCreditCard Bool)
(declare-const ApplyChargesForCashWithdrawal Bool)
(declare-const ReverseTransaction Bool)
(declare-const CancelStandingInstructionOnCreditCard Bool)
(declare-const RequestDuplicateEstatement Bool)
(assert
(and BankingSoftware(and(implies(or Saving Current)
 AccountType)
(implies AccountType(or(and Saving(not Current))
(and(not Saving)
 Current)))
(= AccountType OpenAccount)
(= Customer UserType)
(= UserType ATMLogin)
(and(implies(or Cleark Manager AssitManager Accountent)
 Employee)
(implies Employee(or(and Cleark(not Manager)
(not AssitManager)
(not Accountent))
(and(not Cleark)
 Manager(not AssitManager)
(not Accountent))
(and(not Cleark)
(not Manager)
 AssitManager(not Accountent))
(and(not Cleark)
(not Manager)
(not AssitManager)
 Accountent))))
(= Employee UserType_1)
(= UserType_1 BankEmployeeLogin)
(and(implies(or ATM Bank Online)
 BankingMode)
(implies BankingMode(or(and ATM(not Bank)
(not Online))
(and(not ATM)
 Bank(not Online))
(and(not ATM)
(not Bank)
 Online))))
(and(= OpenAccount CoreBanking)
(= ATMLogin CoreBanking)
(= BankEmployeeLogin CoreBanking)
(= BankingMode CoreBanking)
(= OnlineCustomerLogin CoreBanking)
(= ScanSignatureToAccount CoreBanking)
(= ScanSignatureToAccount_1 CoreBanking)
(= CreditInterestToAccount CoreBanking)
(= LoadCashInATM CoreBanking)
(= DebitAnnualChargesOnDebitCard CoreBanking))
(=(or Manual Automatic)
 FreezeAccount)
(=(or InterBank IntraBank)
 AddBeneficiary)
(=(or Regular Multicity)
 ChequeBookType)
(and(implies(or a15 a30 a50 a100)
 Size)
(implies Size(or(and a15(not a30)
(not a50)
(not a100))
(and(not a15)
 a30(not a50)
(not a100))
(and(not a15)
(not a30)
 a50(not a100))
(and(not a15)
(not a30)
(not a50)
 a100))))
(and(= ChequeBookType IssueChequeBook)
(= Size IssueChequeBook))
(and(implies(or MasterCard VisaCard MastroCard)
 CardType)
(implies CardType(or(and MasterCard(not VisaCard)
(not MastroCard))
(and(not MasterCard)
 VisaCard(not MastroCard))
(and(not MasterCard)
(not VisaCard)
 MastroCard))))
(= CardType ReconcilingCardsTransactions)
(and(implies ActivateAccount CoreBanking)
(implies ReactivateAccount CoreBanking)
(implies CloseAccount CoreBanking)
(implies FreezeAccount CoreBanking)
(implies AddBeneficiary CoreBanking)
(implies ChangeATMPin CoreBanking)
(implies ChangeMaxLimitForOnlineTransfer CoreBanking)
(implies ChangePassword CoreBanking)
(implies CheckingBalance CoreBanking)
(implies CheckingMoneyExchangeRate CoreBanking)
(implies CreateDemandDraft CoreBanking)
(implies CreateDemandDraftOnline CoreBanking)
(implies CreditCardPayment CoreBanking)
(implies CurrencyExchange CoreBanking)
(implies DepositMoney CoreBanking)
(implies FastWithdrawal CoreBanking)
(implies InterBankTransfer CoreBanking)
(implies InternationalTransfer CoreBanking)
(implies IntraBankTransfer CoreBanking)
(implies LanguageSelection CoreBanking)
(implies MobileTopUp CoreBanking)
(implies MoneyExchange CoreBanking)
(implies PayBills CoreBanking)
(implies PrintingBalanceAfterWithdraw CoreBanking)
(implies PrintingBankStatement CoreBanking)
(implies RemoveBeneficiary CoreBanking)
(implies UpdateContactDetails CoreBanking)
(implies UserInterface CoreBanking)
(implies WithdrawMoney CoreBanking)
(implies ChequeClearance CoreBanking)
(implies RegisterMobileNoForBanking CoreBanking)
(implies AddAccountHolder CoreBanking)
(implies DeleteAccountHolder CoreBanking)
(implies IssueChequeBook CoreBanking)
(implies CreateStandingInstruction CoreBanking)
(implies DeleteStandingInstruction CoreBanking)
(implies CreateECSTransaction CoreBanking)
(implies DeleteECSTransaction CoreBanking)
(implies CreatePayOrder CoreBanking)
(implies CreditThroughRTGS CoreBanking)
(implies CreditThroughNEFT CoreBanking)
(implies ReconcilingCardsTransactions CoreBanking)
(implies ReconcilingATMTransactions CoreBanking)
(implies MapDebitCardToAccount CoreBanking)
(implies MapChequeBookToAccount CoreBanking)
(implies AutoATMPinForDebitCard CoreBanking)
(implies CloseFixedDeposit CoreBanking)
(implies PreclosureFixedDeposit CoreBanking)
(implies CancelDemandDraft CoreBanking)
(implies CancelPayOrder CoreBanking))
(= CoreBanking BankingSoftware)
(and(implies(or Personal GoldLoan HomeLoan VehicleLoan LoanAgainstFD LoanAgainstProperty)
 LoanType)
(implies LoanType(or(and Personal(not GoldLoan)
(not HomeLoan)
(not VehicleLoan)
(not LoanAgainstFD)
(not LoanAgainstProperty))
(and(not Personal)
 GoldLoan(not HomeLoan)
(not VehicleLoan)
(not LoanAgainstFD)
(not LoanAgainstProperty))
(and(not Personal)
(not GoldLoan)
 HomeLoan(not VehicleLoan)
(not LoanAgainstFD)
(not LoanAgainstProperty))
(and(not Personal)
(not GoldLoan)
(not HomeLoan)
 VehicleLoan(not LoanAgainstFD)
(not LoanAgainstProperty))
(and(not Personal)
(not GoldLoan)
(not HomeLoan)
(not VehicleLoan)
 LoanAgainstFD(not LoanAgainstProperty))
(and(not Personal)
(not GoldLoan)
(not HomeLoan)
(not VehicleLoan)
(not LoanAgainstFD)
 LoanAgainstProperty))))
(and(implies(or Cheque ECS Cash)
 RepaymentMode)
(implies RepaymentMode(or(and Cheque(not ECS)
(not Cash))
(and(not Cheque)
 ECS(not Cash))
(and(not Cheque)
(not ECS)
 Cash))))
(= RepaymentMode LoanRepayment)
(and(implies LoanRepaymentEMI LoanRepayment)
(implies LoanRepaymentForecloser LoanRepayment))
(= SendNotice InitiateDefaulterProcess)
(and(= ApplyForLoanOnline Loan)
(= EMICalculator Loan)
(= LoanEligibilityChecker Loan)
(= UploadLoanDocuments Loan)
(= VerifyLoanDocuments Loan)
(= LoanType Loan)
(= SanctionLoan Loan)
(= DisburseLoanAmount Loan)
(= LoanRepayment Loan)
(= AddCoBorrower Loan)
(= VerifyLoanEligibility Loan)
(= InitiateDefaulterProcess Loan)
(= InsureLoanWithThirdParty Loan))
(implies AssetVerification Loan)
(=(or PlatinumCard TitaniumCard DinersClubCard JetPrivilegeCard InfiniaCard RegaliaCard SuperiaCard TitaniumEdgeCard SolitaireCard)
 CardType_1)
(=(or Visa Mastro Master AmericanExpress)
 PaymentMode)
(and(= CardType_1 CreditCards)
(= PaymentMode CreditCards)
(= ApplyForCrediCardOnline CreditCards)
(= CheckCreditCardStatus CreditCards)
(= EligibilityChecker CreditCards)
(= UploadDocuments CreditCards)
(= VerifyDocuments CreditCards)
(= ViewAccountSummary CreditCards)
(= ApplyInterestOnOutstandingAmount CreditCards)
(= ApplyAnnualCharges CreditCards)
(= MarkDefaulter CreditCards)
(= UnmarkDefaulter CreditCards)
(= InitiateSettlementProcess CreditCards))
(and(implies(or NetBanking DebitCard)
 Online_1)
(implies Online_1(or(and NetBanking(not DebitCard))
(and(not NetBanking)
 DebitCard))))
(=(or Cheque_1 Cash_1 Online_1 ATM_1)
 PaymentChannel)
(= PaymentChannel PayCreditCardBill)
(and(implies CreditRewardPoints CreditCards)
(implies RedemRewardPoints CreditCards)
(implies ConvertTransactionToEMI CreditCards)
(implies PayCreditCardBill CreditCards)
(implies PayUtilityBills CreditCards)
(implies AddPayee CreditCards)
(implies CreateStandingInstructionOnCreditCard CreditCards)
(implies ViewUnbilledTransaction CreditCards)
(implies eStatement CreditCards)
(implies SendSMSAlerts CreditCards)
(implies SendEmailAlerts CreditCards)
(implies GenerateOTP CreditCards)
(implies RegisterForEstatement CreditCards)
(implies ApplyLateFees CreditCards)
(implies ApplyBalanceTransfer CreditCards)
(implies ApplyProcessingFees CreditCards)
(implies CreditBTAmountToOtherCard CreditCards)
(implies CashWithdrawalFromCreditCard CreditCards)
(implies ApplyChargesForCashWithdrawal CreditCards)
(implies ReverseTransaction CreditCards)
(implies CancelStandingInstructionOnCreditCard CreditCards)
(implies RequestDuplicateEstatement CreditCards))
(and(implies Loan BankingSoftware)
(implies CreditCards BankingSoftware)))
(and(or(not LoanAgainstProperty)
 AssetVerification)
(or(not HomeLoan)
 AssetVerification)
(or(not LoanAgainstFD)
 AssetVerification)
(or(not GoldLoan)
 AssetVerification)))
)